50 
300 
10.5 14.4 0 0
11.2 14.1 0 -25
18 15.9 10 -22
18.3 13.3 10 -27
16.5 9.3 -10 -65
15.4 11 -10 -139
14.9 13.2 -5 -118
16.3 13.3 -5 -123
16.4 17.8 -5 -89
15 17.9 -5 -139
16.1 19.6 -10 -71
15.7 20.6 -10 -106
13.2 20.1 10 -27
14.3 15.3 -5 -122
14 5.1 -10 -112
11.4 6.7 15 -17
8.3 5 -15 -120
7.9 9.8 -10 -114
11.4 12 5 -10
11.2 17.6 5 -20
10.1 18.7 5 -23
11.7 20.3 10 -27
10.2 22.1 -10 -133
9.7 23.8 -10 -99
10.1 26.4 15 -14
7.4 24 15 -12
8.2 19.9 15 -23
8.7 17.7 10 -15
8.9 13.6 -10 -64
5.6 11.1 -10 -72
4.9 18.9 -10 -85
7.3 18.8 10 -12
